12 32 3 10
10 19 9 9 5 15 16 18 8 13 12 17 3 16 1 8 4 15 2 4 3 11 13 5 8 10 10 6 3 9 15 14 
13.64 6.44 13.6 6.66 10.59 8.12 15.68 1.14 9.77 8.23 7.33 8.84 9.03 0.87 10.62 8.05 15.29 2.51 2.16 8.87 14.93 15.62 0.03 1.38 13.14 15.36 15.92 5.66 13.24 13.5 2.23 7.67 
15.54 1.69 8.28 2.4 13.74 5.66 4.1 7.89 5.06 6.06 13.11 9.65 2.21 14.49 12.07 15.4 8.65 11.88 6.78 1.04 10.9 2.56 14.95 8.93 4.13 15.29 11.36 6.07 12.35 2.94 14.52 14.37 
12.8 3.08 11.99 5.06 13.75 10.64 8.65 15.05 0.47 0.88 11.86 10.73 3.71 13.47 5.27 7.46 14.55 14.51 13.9 3.7 15.29 9.11 4.71 6.35 10.41 7.81 6.12 6.2 9.23 4.78 2.21 11.69 
8 8 8 8 8 8 8 8 8 8 8 8 8 8 8 8 8 8 8 8 8 8 8 8 8 8 8 8 8 8 8 8 
10.56 7.23 8.43 1.81 14.57 0.79 5.72 7.12 2.95 15.39 14.27 10.93 1.34 15.56 4.99 4.69 9.5 7.82 15.35 3.65 3.1 12.59 9.83 13.12 13.9 6.07 1.57 6.81 1.94 1.51 15.43 10.55 
12.23 7.21 12.2 8.13 12.34 6.02 2.22 8.46 10.44 6.41 15.08 3.61 13.48 14.3 11.45 3.97 15.38 3.13 8.86 15.88 14.03 15.11 15.27 15.45 3.36 1.26 14.74 1.82 12.33 11.75 2.69 5.78 
14.88 2.88 15.55 4.6 9.34 1.39 10.33 7.82 7.46 12.66 7.3 14.4 0.81 2.05 2.88 14.42 13.35 15.24 3.35 5.01 11.66 7.11 1.27 2.05 2.61 11.99 12.01 1.03 2.09 8.75 13.97 10.92 
14.45 10.36 3.8 3.8 12.95 5.06 2.69 4.74 2.76 14.67 4.28 12.19 4.55 10.11 7.02 3.65 12.08 11.76 5.63 9.73 1.2 2.27 14.74 2.66 8.88 12.57 3.98 9.74 5.03 0.65 9.18 5.24 
15.09 1.34 11.6 10.44 4.36 12.93 15.93 12.71 4.11 13.88 8.74 11.79 15.59 11.6 0.4 15.3 11.87 6.6 10.06 8.94 6.03 6.21 12.77 11.81 7.21 11.71 12.03 2.31 8.12 1.88 13.93 14.42 
2.64 14.59 6.05 4.01 4.43 3.6 7.19 12.68 9.19 3.03 2.47 3.26 9.42 4.84 5.11 10.11 1.39 13.49 4.86 6.04 15.7 3.28 13.37 7.48 8.29 9.77 10.07 11.32 8.6 9.38 5.02 4.14 
7.04 3.56 14.27 14.27 1.75 12.08 12.85 12.18 15.27 0.13 14.07 8.31 0.58 5.02 13.3 5.3 2.65 13 6.88 13.87 12.05 8.56 6.82 1.61 6.77 3.92 15.79 3.96 6.87 6.24 13.78 2.67 
15.51 11.45 13.99 6.4 2.61 14.27 11.46 0.96 7.46 1 13.41 5.35 2.23 1.72 4.93 9.92 11.54 1.47 3.07 7.36 2.36 1.47 14.48 2.41 13.61 15.71 0.56 9.93 16 14.19 1.61 9.62 
1 1 1 1 1 1 1 1 1 1 1 1 1 1 1 1 1 1 1 1 1 1 1 1 1 1 1 1 1 1 1 1 
1 1 1 1 1 1 1 1 1 1 1 1 1 1 1 1 1 1 1 1 1 1 1 1 1 1 1 1 1 1 1 1 
1 1 1 1 1 1 1 1 1 1 1 1 1 1 1 1 1 1 1 1 1 1 1 1 1 1 1 1 1 1 1 1 
1 1 1 1 1 1 1 1 1 1 1 1 1 1 1 1 1 1 1 1 1 1 1 1 1 1 1 1 1 1 1 1 
1 1 1 1 1 1 1 1 1 1 1 1 1 1 1 1 1 1 1 1 1 1 1 1 1 1 1 1 1 1 1 1 
1 1 1 1 1 1 1 1 1 1 1 1 1 1 1 1 1 1 1 1 1 1 1 1 1 1 1 1 1 1 1 1 
1 1 1 1 1 1 1 1 1 1 1 1 1 1 1 1 1 1 1 1 1 1 1 1 1 1 1 1 1 1 1 1 
1 1 1 1 1 1 1 1 1 1 1 1 1 1 1 1 1 1 1 1 1 1 1 1 1 1 1 1 1 1 1 1 
1 1 1 1 1 1 1 1 1 1 1 1 1 1 1 1 1 1 1 1 1 1 1 1 1 1 1 1 1 1 1 1 
1 1 1 1 1 1 1 1 1 1 1 1 1 1 1 1 1 1 1 1 1 1 1 1 1 1 1 1 1 1 1 1 
1 1 1 1 1 1 1 1 1 1 1 1 1 1 1 1 1 1 1 1 1 1 1 1 1 1 1 1 1 1 1 1 
1 1 1 1 1 1 1 1 1 1 1 1 1 1 1 1 1 1 1 1 1 1 1 1 1 1 1 1 1 1 1 1 
0.01 0.01 0.01 0.01 0.01 0.01 0.01 0.01 0.01 0.01 0.01 0.01 0.01 0.01 0.01 0.01 0.01 0.01 0.01 0.01 0.01 0.01 0.01 0.01 0.01 0.01 0.01 0.01 0.01 0.01 0.01 0.01 
0.02 0.02 0.02 0.02 0.02 0.02 0.02 0.02 0.02 0.02 0.02 0.02 0.02 0.02 0.02 0.02 0.02 0.02 0.02 0.02 0.02 0.02 0.02 0.02 0.02 0.02 0.02 0.02 0.02 0.02 0.02 0.02 
0.03 0.03 0.03 0.03 0.03 0.03 0.03 0.03 0.03 0.03 0.03 0.03 0.03 0.03 0.03 0.03 0.03 0.03 0.03 0.03 0.03 0.03 0.03 0.03 0.03 0.03 0.03 0.03 0.03 0.03 0.03 0.03 
0.04 0.04 0.04 0.04 0.04 0.04 0.04 0.04 0.04 0.04 0.04 0.04 0.04 0.04 0.04 0.04 0.04 0.04 0.04 0.04 0.04 0.04 0.04 0.04 0.04 0.04 0.04 0.04 0.04 0.04 0.04 0.04 
0.125 0.125 0.125 0.125 0.125 0.125 0.125 0.125 0.125 0.125 0.125 0.125 0.125 0.125 0.125 0.125 0.125 0.125 0.125 0.125 0.125 0.125 0.125 0.125 0.125 0.125 0.125 0.125 0.125 0.125 0.125 0.125 
0.25 0.25 0.25 0.25 0.25 0.25 0.25 0.25 0.25 0.25 0.25 0.25 0.25 0.25 0.25 0.25 0.25 0.25 0.25 0.25 0.25 0.25 0.25 0.25 0.25 0.25 0.25 0.25 0.25 0.25 0.25 0.25 
0.375 0.375 0.375 0.375 0.375 0.375 0.375 0.375 0.375 0.375 0.375 0.375 0.375 0.375 0.375 0.375 0.375 0.375 0.375 0.375 0.375 0.375 0.375 0.375 0.375 0.375 0.375 0.375 0.375 0.375 0.375 0.375 
0.5 0.5 0.5 0.5 0.5 0.5 0.5 0.5 0.5 0.5 0.5 0.5 0.5 0.5 0.5 0.5 0.5 0.5 0.5 0.5 0.5 0.5 0.5 0.5 0.5 0.5 0.5 0.5 0.5 0.5 0.5 0.5 
0.625 0.625 0.625 0.625 0.625 0.625 0.625 0.625 0.625 0.625 0.625 0.625 0.625 0.625 0.625 0.625 0.625 0.625 0.625 0.625 0.625 0.625 0.625 0.625 0.625 0.625 0.625 0.625 0.625 0.625 0.625 0.625 
0.75 0.75 0.75 0.75 0.75 0.75 0.75 0.75 0.75 0.75 0.75 0.75 0.75 0.75 0.75 0.75 0.75 0.75 0.75 0.75 0.75 0.75 0.75 0.75 0.75 0.75 0.75 0.75 0.75 0.75 0.75 0.75 
0.875 0.875 0.875 0.875 0.875 0.875 0.875 0.875 0.875 0.875 0.875 0.875 0.875 0.875 0.875 0.875 0.875 0.875 0.875 0.875 0.875 0.875 0.875 0.875 0.875 0.875 0.875 0.875 0.875 0.875 0.875 0.875 
1 1 1 1 1 1 1 1 1 1 1 1 1 1 1 1 1 1 1 1 1 1 1 1 1 1 1 1 1 1 1 1 
